NAME: concorde91
TYPE: TSP
DIMENSION: 15 
EDGE_WEIGHT_TYPE: EUC_2D
NODE_COORD_SECTION
1 30 36
2 74 57
3 91 69
4 21 98
5 36 70
6 45 1
7 91 54
8 39 84
9 52 81
10 12 8
11 3 24
12 77 97
13 33 3
14 39 92
15 4 73
